c uprop, v00.0, 
c reading from data/prog108.c.cnf
c done reading: 0.004722
p cnf 150 592
-59 -81 0
-59 -76 0
59 76 81 0
-53 76 81 0
-53 -76 -81 0
53 76 -81 0
53 -76 81 0
59 -70 0
-69 -70 0
-59 69 70 0
-59 -64 69 0
59 -64 -69 0
59 64 69 0
-59 64 -69 0
-60 70 0
-58 -60 0
58 60 -70 0
-55 58 -70 0
-55 -58 70 0
55 58 70 0
55 -58 -70 0
-54 60 0
-52 -54 0
52 54 -60 0
52 -60 -77 0
-52 60 -77 0
52 60 77 0
-52 -60 77 0
54 -82 0
-73 -82 0
-54 73 82 0
-54 73 -84 0
54 -73 -84 0
54 73 84 0
-54 -73 84 0
82 -86 0
-66 -86 0
66 -82 86 0
66 -82 -88 0
-66 82 -88 0
66 82 88 0
-66 -82 88 0
86 -89 0
-62 -89 0
62 -86 89 0
62 -86 -91 0
-62 86 -91 0
62 86 91 0
-62 -86 91 0
58 -92 0
81 -92 0
-58 -81 92 0
-58 -81 -93 0
58 81 -93 0
-58 81 93 0
58 -81 93 0
-52 -76 94 0
-52 -92 94 0
-76 -92 94 0
52 76 -94 0
52 92 -94 0
76 92 -94 0
52 -94 -95 0
76 -94 -95 0
92 -94 -95 0
-52 94 95 0
-76 94 95 0
-92 94 95 0
-52 -76 -92 95 0
52 76 92 -95 0
-69 -73 96 0
-73 -94 96 0
-69 -94 96 0
69 73 -96 0
73 94 -96 0
69 94 -96 0
73 -96 -97 0
69 -96 -97 0
94 -96 -97 0
-73 96 97 0
-69 96 97 0
-94 96 97 0
-69 -73 -94 97 0
69 73 94 -97 0
-58 -66 98 0
-66 -96 98 0
-58 -96 98 0
58 66 -98 0
66 96 -98 0
58 96 -98 0
-49 66 -98 0
-49 58 -98 0
-49 96 -98 0
49 -66 98 0
49 -58 98 0
49 -96 98 0
49 -58 -66 -96 0
-49 58 66 96 0
48 -52 -62 0
48 -62 -98 0
48 -52 -98 0
-48 52 62 0
-48 62 98 0
-48 52 98 0
-46 -48 62 0
-46 -48 52 0
-46 -48 98 0
46 48 -62 0
46 48 -52 0
46 48 -98 0
46 -52 -62 -98 0
-46 52 62 98 0
-44 73 0
-44 48 0
44 -48 -73 0
-42 -48 -73 0
-42 48 73 0
42 48 -73 0
42 -48 73 0
-40 66 0
-40 44 0
40 -44 -66 0
-44 -66 -79 0
44 66 -79 0
44 -66 79 0
-44 66 79 0
62 -74 0
40 -74 0
-40 -62 74 0
-40 -62 -67 0
40 62 -67 0
40 -62 67 0
-40 62 67 0
-56 97 0
-56 81 0
56 -81 -97 0
-50 -81 -97 0
-50 81 97 0
50 81 -97 0
50 -81 97 0
-49 71 -76 0
-49 -56 71 0
-56 71 -76 0
49 -71 76 0
49 56 -71 0
56 -71 76 0
49 -65 -71 0
-65 -71 76 0
56 -65 -71 0
-49 65 71 0
65 71 -76 0
-56 65 71 0
-49 -56 65 -76 0
49 56 -65 76 0
-46 61 -69 0
-46 61 -71 0
61 -69 -71 0
46 -61 69 0
46 -61 71 0
-61 69 71 0
-39 46 -61 0
-39 -61 69 0
-39 -61 71 0
39 -46 61 0
39 61 -69 0
39 61 -71 0
39 -46 -69 -71 0
-39 46 69 71 0
38 -42 -58 0
38 -42 -61 0
38 -58 -61 0
-38 42 58 0
-38 42 61 0
-38 58 61 0
38 -42 0
38 -58 0
38 -61 0
-42 -58 -61 0
37 -52 -79 0
37 -38 -79 0
37 -38 -52 0
-37 52 79 0
-37 38 79 0
-37 38 52 0
37 -79 0
37 -52 0
37 -38 0
-38 -52 -79 0
36 -67 -73 0
36 -37 -67 0
36 -37 -73 0
-36 67 73 0
-36 37 67 0
-36 37 73 0
36 -67 0
36 -73 0
36 -37 0
-37 -67 -73 0
35 -66 -74 0
35 -36 -74 0
35 -36 -66 0
-35 66 74 0
-35 36 74 0
-35 36 66 0
35 -74 0
35 -66 0
35 -36 0
-36 -66 -74 0
-35 -62 0
35 -62 0
-35 62 0
-34 -81 0
-34 -76 0
34 76 81 0
-33 76 81 0
-33 -76 -81 0
33 76 -81 0
33 -76 81 0
-32 34 0
-32 -69 0
32 -34 69 0
-31 -34 69 0
-31 34 -69 0
31 34 69 0
31 -34 -69 0
-30 32 0
-30 -93 0
30 -32 93 0
-29 -32 93 0
-29 32 -93 0
29 32 93 0
29 -32 -93 0
-28 30 0
-28 -95 0
28 -30 95 0
-27 -30 95 0
-27 30 -95 0
27 30 95 0
27 -30 -95 0
-26 28 0
-26 -50 0
26 -28 50 0
-25 -28 50 0
-25 28 -50 0
25 28 50 0
25 -28 -50 0
-24 26 0
-24 -65 0
24 -26 65 0
-26 65 -99 0
26 -65 -99 0
26 65 99 0
-26 -65 99 0
24 -100 0
-39 -100 0
-24 39 100 0
-24 39 -101 0
24 -39 -101 0
24 39 101 0
-24 -39 101 0
100 -102 0
-100 102 0
-100 -103 0
100 103 0
102 -104 0
-102 104 0
-102 -105 0
102 105 0
104 -106 0
-104 106 0
-104 -107 0
104 107 0
106 -108 0
-106 108 0
-106 -109 0
106 109 0
108 -110 0
-108 110 0
-108 -111 0
108 111 0
110 -112 0
-110 112 0
-110 -113 0
110 113 0
-114 -116 0
-116 -117 0
114 116 117 0
114 117 -119 0
-114 -117 -119 0
-114 117 119 0
114 -117 119 0
116 -120 0
-120 -121 0
-116 120 121 0
-116 121 -123 0
116 -121 -123 0
116 121 123 0
-116 -121 123 0
120 -124 0
-120 124 0
-120 -125 0
120 125 0
124 -126 0
-124 126 0
-124 -127 0
124 127 0
126 -128 0
-126 128 0
-126 -129 0
126 129 0
128 -130 0
-128 130 0
-128 -131 0
128 131 0
130 -132 0
-130 132 0
-130 -133 0
130 133 0
117 -134 0
114 -134 0
-114 -117 134 0
-114 -117 -135 0
114 117 -135 0
114 -117 135 0
-114 117 135 0
-117 -121 136 0
-121 -134 136 0
-117 -134 136 0
117 121 -136 0
121 134 -136 0
117 134 -136 0
121 -136 -137 0
117 -136 -137 0
134 -136 -137 0
-121 136 137 0
-117 136 137 0
-134 136 137 0
-117 -121 -134 137 0
117 121 134 -137 0
-121 -136 138 0
121 -138 0
136 -138 0
121 136 -138 0
-138 -139 0
121 -138 -139 0
136 -138 -139 0
-121 138 139 0
-136 138 139 0
121 136 -139 0
-138 140 0
138 -140 0
-63 137 0
-63 114 0
63 -114 -137 0
-114 -115 -137 0
114 -115 137 0
114 115 -137 0
-114 115 137 0
-117 118 -139 0
-63 118 -139 0
-63 -117 118 0
117 -118 139 0
63 -118 139 0
63 117 -118 0
-118 -122 139 0
117 -118 -122 0
63 -118 -122 0
118 122 -139 0
-117 118 122 0
-63 118 122 0
-63 -117 122 -139 0
63 117 -122 139 0
-121 -140 141 0
-118 -140 141 0
-118 -121 141 0
121 140 -141 0
118 140 -141 0
118 121 -141 0
140 -141 -142 0
121 -141 -142 0
118 -141 -142 0
-140 141 142 0
-121 141 142 0
-118 141 142 0
-118 -121 -140 142 0
118 121 140 -142 0
-141 143 0
141 -143 0
142 -144 0
114 -144 0
-114 -142 144 0
-114 -142 -145 0
114 142 -145 0
114 -142 145 0
-114 142 145 0
-117 -143 146 0
-143 -144 146 0
-117 -144 146 0
117 143 -146 0
143 144 -146 0
117 144 -146 0
143 -146 -147 0
117 -146 -147 0
144 -146 -147 0
-143 146 147 0
-117 146 147 0
-144 146 147 0
-117 -143 -144 147 0
117 143 144 -147 0
-121 -146 148 0
121 -148 0
146 -148 0
121 146 -148 0
-148 -149 0
121 -148 -149 0
146 -148 -149 0
-121 148 149 0
-146 148 149 0
121 146 -149 0
-148 150 0
148 -150 0
-78 147 0
-78 114 0
78 -114 -147 0
-83 -114 -147 0
-83 114 147 0
83 114 -147 0
83 -114 147 0
85 -117 -149 0
-78 85 -149 0
-78 85 -117 0
-85 117 149 0
78 -85 149 0
78 -85 117 0
-85 -87 149 0
-85 -87 117 0
78 -85 -87 0
85 87 -149 0
85 87 -117 0
-78 85 87 0
-78 87 -117 -149 0
78 -87 117 149 0
-121 -150 0
-85 -150 0
-85 -121 0
90 -150 0
90 -121 0
-85 90 0
-85 90 -121 -150 0
85 -90 121 150 0
-47 -114 0
-47 -135 0
47 114 135 0
-45 114 135 0
-45 -114 -135 0
45 -114 135 0
45 114 -135 0
-43 47 0
-43 -115 0
43 -47 115 0
-41 -47 115 0
-41 47 -115 0
41 47 115 0
41 -47 -115 0
43 -80 0
-80 -122 0
-43 80 122 0
-43 -75 122 0
43 -75 -122 0
43 75 122 0
-43 75 -122 0
-68 80 0
-68 -145 0
68 -80 145 0
-57 -80 145 0
-57 80 -145 0
57 80 145 0
57 -80 -145 0
-51 68 0
-51 -83 0
51 -68 83 0
-68 -72 83 0
68 -72 -83 0
68 72 83 0
-68 72 -83 0
-23 51 0
-23 -87 0
23 -51 87 0
-22 -51 87 0
-22 51 -87 0
22 51 87 0
22 -51 -87 0
-21 23 0
-21 -90 0
21 -23 90 0
-20 -23 90 0
-20 23 -90 0
20 23 90 0
20 -23 -90 0
-19 21 0
19 -21 0
-18 -21 0
18 21 0
-17 19 0
17 -19 0
-16 -19 0
16 19 0
-15 17 0
15 -17 0
-14 -17 0
14 17 0
-13 15 0
13 -15 0
-12 -15 0
12 15 0
-11 13 0
11 -13 0
-10 -13 0
10 13 0
-9 11 0
9 -11 0
-8 -11 0
8 11 0
-7 81 0
-7 114 0
7 -81 -114 0
-81 114 0
81 -114 0
6 -76 -135 0
6 -7 -76 0
6 -7 -135 0
-6 76 135 0
-6 7 76 0
-6 7 135 0
-6 76 0
-6 135 0
-6 7 0
7 76 135 0
5 -69 -115 0
5 -6 -69 0
5 -6 -115 0
-5 69 115 0
-5 6 69 0
-5 6 115 0
-5 69 0
-5 115 0
-5 6 0
6 69 115 0
4 -93 -122 0
4 -5 -93 0
4 -5 -122 0
-4 93 122 0
-4 5 93 0
-4 5 122 0
-4 93 0
-4 122 0
-4 5 0
5 93 122 0
3 -95 -145 0
3 -4 -95 0
3 -4 -145 0
-3 95 145 0
-3 4 95 0
-3 4 145 0
-3 95 0
-3 145 0
-3 4 0
4 95 145 0
2 -50 -83 0
2 -3 -50 0
2 -3 -83 0
-2 50 83 0
-2 3 50 0
-2 3 83 0
-2 50 0
-2 83 0
-2 3 0
3 50 83 0
1 -65 -87 0
1 -2 -65 0
1 -2 -87 0
-1 65 87 0
-1 2 65 0
-1 2 87 0
-1 65 0
-1 87 0
-1 2 0
2 65 87 0
-39 -90 0
-1 -39 0
-1 -90 0
1 39 90 0
